n1 = 5;
adjacent1 = [| 0, 0, 0, 0, 0
| 0, 0, 0, 0, 1
| 0, 0, 0, 1, 0
| 0, 0, 1, 0, 0
| 0, 1, 0, 0, 0 |];
n2 = 5;
adjacent2 = [| 0, 0, 0, 0, 1
| 0, 0, 0, 0, 0
| 0, 0, 0, 1, 0
| 0, 0, 1, 0, 0
| 1, 0, 0, 0, 0 |];
vertexDeletionCost = [45, 45, 45, 45, 45];
vertexInsertionCost = [45, 45, 45, 45, 45];
vertexSubstitutionCost = [| 90, 10.404326023342406, 90, 90, 90
| 90, 90, 10.44030650891055, 90, 20.554804791094465
| 9.12414379544733, 90, 90, 37.08436328157732, 90
| 90, 90, 32.38826948140329, 90, 8.860022573334675
| 22.638462845343543, 90, 90, 8.514693182963201, 90 |];
edgeDeletionCost = [| 0.0, 0.0, 0.0, 0.0, 0.0
| 0.0, 0.0, 0.0, 0.0, 15.0
| 0.0, 0.0, 0.0, 15.0, 0.0
| 0.0, 0.0, 15.0, 0.0, 0.0
| 0.0, 15.0, 0.0, 0.0, 0.0 |];
edgeInsertionCost = [| 0.0, 0.0, 0.0, 0.0, 15.0
| 0.0, 0.0, 0.0, 0.0, 0.0
| 0.0, 0.0, 0.0, 15.0, 0.0
| 0.0, 0.0, 15.0, 0.0, 0.0
| 15.0, 0.0, 0.0, 0.0, 0.0 |];
edgeSubstitutionCost = array4d(1..n1, 1..n1, 1..n2, 1..n2, [0, 0, 0, 0, 15.0, 0, 0, 0, 0, 0, 0, 0, 0, 15.0, 0, 0, 0, 15.0, 0, 0, 15.0, 0, 0, 0, 0, 0, 0, 0, 0, 15.0, 0, 0, 0, 0, 0, 0, 0, 0, 15.0, 0, 0, 0, 15.0, 0, 0, 15.0, 0, 0, 0, 0, 0, 0, 0, 0, 15.0, 0, 0, 0, 0, 0, 0, 0, 0, 15.0, 0, 0, 0, 15.0, 0, 0, 15.0, 0, 0, 0, 0, 0, 0, 0, 0, 15.0, 0, 0, 0, 0, 0, 0, 0, 0, 15.0, 0, 0, 0, 15.0, 0, 0, 15.0, 0, 0, 0, 0, 0, 0, 0, 0, 15.0, 0, 0, 0, 0, 0, 0, 0, 0, 15.0, 0, 0, 0, 15.0, 0, 0, 15.0, 0, 0, 0, 0, 0, 0, 0, 0, 15.0, 0, 0, 0, 0, 0, 0, 0, 0, 15.0, 0, 0, 0, 15.0, 0, 0, 15.0, 0, 0, 0, 0, 0, 0, 0, 0, 15.0, 0, 0, 0, 0, 0, 0, 0, 0, 15.0, 0, 0, 0, 15.0, 0, 0, 15.0, 0, 0, 0, 0, 0, 0, 0, 0, 15.0, 0, 0, 0, 0, 0, 0, 0, 0, 15.0, 0, 0, 0, 15.0, 0, 0, 15.0, 0, 0, 0, 0, 0, 0, 0, 0, 15.0, 0, 0, 0, 0, 0, 0, 0, 0, 15.0, 0, 0, 0, 15.0, 0, 0, 15.0, 0, 0, 0, 0, 15.0, 15.0, 15.0, 15.0, 0.0, 15.0, 15.0, 15.0, 15.0, 15.0, 15.0, 15.0, 15.0, 0.0, 15.0, 15.0, 15.0, 0.0, 15.0, 15.0, 0.0, 15.0, 15.0, 15.0, 15.0, 0, 0, 0, 0, 15.0, 0, 0, 0, 0, 0, 0, 0, 0, 15.0, 0, 0, 0, 15.0, 0, 0, 15.0, 0, 0, 0, 0, 0, 0, 0, 0, 15.0, 0, 0, 0, 0, 0, 0, 0, 0, 15.0, 0, 0, 0, 15.0, 0, 0, 15.0, 0, 0, 0, 0, 0, 0, 0, 0, 15.0, 0, 0, 0, 0, 0, 0, 0, 0, 15.0, 0, 0, 0, 15.0, 0, 0, 15.0, 0, 0, 0, 0, 15.0, 15.0, 15.0, 15.0, 0.0, 15.0, 15.0, 15.0, 15.0, 15.0, 15.0, 15.0, 15.0, 0.0, 15.0, 15.0, 15.0, 0.0, 15.0, 15.0, 0.0, 15.0, 15.0, 15.0, 15.0, 0, 0, 0, 0, 15.0, 0, 0, 0, 0, 0, 0, 0, 0, 15.0, 0, 0, 0, 15.0, 0, 0, 15.0, 0, 0, 0, 0, 0, 0, 0, 0, 15.0, 0, 0, 0, 0, 0, 0, 0, 0, 15.0, 0, 0, 0, 15.0, 0, 0, 15.0, 0, 0, 0, 0, 0, 0, 0, 0, 15.0, 0, 0, 0, 0, 0, 0, 0, 0, 15.0, 0, 0, 0, 15.0, 0, 0, 15.0, 0, 0, 0, 0, 15.0, 15.0, 15.0, 15.0, 0.0, 15.0, 15.0, 15.0, 15.0, 15.0, 15.0, 15.0, 15.0, 0.0, 15.0, 15.0, 15.0, 0.0, 15.0, 15.0, 0.0, 15.0, 15.0, 15.0, 15.0, 0, 0, 0, 0, 15.0, 0, 0, 0, 0, 0, 0, 0, 0, 15.0, 0, 0, 0, 15.0, 0, 0, 15.0, 0, 0, 0, 0, 0, 0, 0, 0, 15.0, 0, 0, 0, 0, 0, 0, 0, 0, 15.0, 0, 0, 0, 15.0, 0, 0, 15.0, 0, 0, 0, 0, 0, 0, 0, 0, 15.0, 0, 0, 0, 0, 0, 0, 0, 0, 15.0, 0, 0, 0, 15.0, 0, 0, 15.0, 0, 0, 0, 0, 15.0, 15.0, 15.0, 15.0, 0.0, 15.0, 15.0, 15.0, 15.0, 15.0, 15.0, 15.0, 15.0, 0.0, 15.0, 15.0, 15.0, 0.0, 15.0, 15.0, 0.0, 15.0, 15.0, 15.0, 15.0, 0, 0, 0, 0, 15.0, 0, 0, 0, 0, 0, 0, 0, 0, 15.0, 0, 0, 0, 15.0, 0, 0, 15.0, 0, 0, 0, 0, 0, 0, 0, 0, 15.0, 0, 0, 0, 0, 0, 0, 0, 0, 15.0, 0, 0, 0, 15.0, 0, 0, 15.0, 0, 0, 0, 0, 0, 0, 0, 0, 15.0, 0, 0, 0, 0, 0, 0, 0, 0, 15.0, 0, 0, 0, 15.0, 0, 0, 15.0, 0, 0, 0, 0]);
